50
C16H34 planar zigzag, Angstrom
C    0.000000000000   0.000000000000   0.000000000000
C    1.276717861735   0.861157071345   0.000000000000
C    2.553435723470   0.000000000000   0.000000000000
C    3.830153585204   0.861157071345   0.000000000000
C    5.106871446939   0.000000000000   0.000000000000
C    6.383589308674   0.861157071345   0.000000000000
C    7.660307170409   0.000000000000   0.000000000000
C    8.937025032143   0.861157071345   0.000000000000
C   10.213742893878   0.000000000000   0.000000000000
C   11.490460755613   0.861157071345   0.000000000000
C   12.767178617348   0.000000000000   0.000000000000
C   14.043896479082   0.861157071345   0.000000000000
C   15.320614340817   0.000000000000   0.000000000000
C   16.597332202552   0.861157071345   0.000000000000
C   17.874050064287   0.000000000000   0.000000000000
C   19.150767926021   0.861157071345   0.000000000000
H    0.273444231970  -1.055143711540   0.000000000000
H   -0.588547593028   0.222811723378  -0.889981273211
H   -0.588547593028   0.222811723378   0.889981273211
H    1.276717861735   1.510903037501   0.875174370891
H    1.276717861735   1.510903037501  -0.875174370891
H    2.553435723470  -0.649745966156  -0.875174370891
H    2.553435723470  -0.649745966156   0.875174370891
H    3.830153585204   1.510903037501   0.875174370891
H    3.830153585204   1.510903037501  -0.875174370891
H    5.106871446939  -0.649745966156  -0.875174370891
H    5.106871446939  -0.649745966156   0.875174370891
H    6.383589308674   1.510903037501   0.875174370891
H    6.383589308674   1.510903037501  -0.875174370891
H    7.660307170409  -0.649745966156  -0.875174370891
H    7.660307170409  -0.649745966156   0.875174370891
H    8.937025032143   1.510903037501   0.875174370891
H    8.937025032143   1.510903037501  -0.875174370891
H   10.213742893878  -0.649745966156  -0.875174370891
H   10.213742893878  -0.649745966156   0.875174370891
H   11.490460755613   1.510903037501   0.875174370891
H   11.490460755613   1.510903037501  -0.875174370891
H   12.767178617348  -0.649745966156  -0.875174370891
H   12.767178617348  -0.649745966156   0.875174370891
H   14.043896479082   1.510903037501   0.875174370891
H   14.043896479082   1.510903037501  -0.875174370891
H   15.320614340817  -0.649745966156  -0.875174370891
H   15.320614340817  -0.649745966156   0.875174370891
H   16.597332202552   1.510903037501   0.875174370891
H   16.597332202552   1.510903037501  -0.875174370891
H   17.874050064287  -0.649745966156  -0.875174370891
H   17.874050064287  -0.649745966156   0.875174370891
H   18.877323694051   1.916300782885   0.000000000000
H   19.739315519049   0.638345347967  -0.889981273211
H   19.739315519049   0.638345347967   0.889981273211
