14
C4H10 planar zigzag, Angstrom
C   0.000000000000   0.000000000000   0.000000000000
C   1.276717861735   0.861157071345   0.000000000000
C   2.553435723470   0.000000000000   0.000000000000
C   3.830153585204   0.861157071345   0.000000000000
H   0.273444231970  -1.055143711540   0.000000000000
H  -0.588547593028   0.222811723378  -0.889981273211
H  -0.588547593028   0.222811723378   0.889981273211
H   1.276717861735   1.510903037501   0.875174370891
H   1.276717861735   1.510903037501  -0.875174370891
H   2.553435723470  -0.649745966156  -0.875174370891
H   2.553435723470  -0.649745966156   0.875174370891
H   3.556709353234   1.916300782885   0.000000000000
H   4.418701178232   0.638345347967  -0.889981273211
H   4.418701178232   0.638345347967   0.889981273211
