9

O   -1.485163346097   -0.114724564047    0.000000000000
H   -1.868415346097    0.762298435953    0.000000000000
H   -0.533833346097    0.040507435953    0.000000000000
O    1.416468653903    0.111264435953    0.000000000000
H    1.746241653903   -0.373945564047   -0.758561000000
H    1.746241653903   -0.373945564047    0.758561000000
O    0.000000000000    2.500000000000    1.500000000000
H    0.957200000000    2.500000000000    1.500000000000
H   -0.239300000000    2.500000000000    2.428040000000
