72
bulk-carved (H2O)24; source_step=100000; center_mol=181; center_O_id=541; outer_O_radius=5.408015 A
O   0.0000000000  0.0000000000  0.0000000000
H   0.8584387283 -0.0162191956  0.4310567321
H  -0.1285702914 -0.9228632802 -0.2657898937
O   0.3869432269  2.2707048536 -1.1777831426
H   1.2908364862  2.3199976721 -1.4424881911
H   0.1336742975  1.3938921086 -0.8395850391
O  -0.6129904528 -2.5003769391 -0.8732913774
H  -1.4314851482 -2.9122221727 -0.4692437000
H   0.1599679895 -3.1027971753 -0.6367108512
O   2.2082455475 -0.0902041186  1.7266977708
H   2.6143039482 -1.0086816200  1.8353851840
H   2.7801446443  0.6036957195  1.2517647786
O  -2.0566466211  1.2236230528  1.7410887583
H  -1.9879334611  2.1557836153  1.6478385458
H  -1.3545106542  0.8058084581  1.2185461659
O   2.5476933300 -0.2695438780 -1.7859352904
H   1.6550338486 -0.3283115664 -2.1377532630
H   3.0876422331 -0.9384274098 -2.2774877277
O  -3.4905277944  1.3277596162 -0.8063542165
H  -3.5065827939  0.4128312223 -0.9391943571
H  -2.9353474927  1.4539197294 -0.0387826396
O  -1.6646492470  2.1659717017 -3.0047592859
H  -2.3973376296  1.7450831997 -2.4993869870
H  -1.0738802105  2.2124333361 -2.1886220853
O   2.2075146790 -3.2824828534 -0.9326092827
H   2.3994915166 -3.8908827017 -1.6162252638
H   2.5040131929 -3.7494009986 -0.2009992777
O   1.0003511613  1.3494363837  3.7530832132
H   1.5523187415  0.9385316433  2.9796197000
H   0.2260093806  1.5581536894  3.2693778848
O   1.1069825424 -3.1345968325  2.8521668408
H   0.1638537771 -2.9079715907  2.7849330716
H   1.3103851815 -3.5776370007  2.0535647457
O   3.0028223259  2.6267694691 -1.8829182172
H   3.2784159397  1.6773533457 -1.7723643951
H   3.1666334709  2.7464529817 -2.8541664667
O  -0.7400923897 -2.2242267434 -3.7580351064
H  -0.4856495985 -1.3517212189 -4.0226779260
H  -0.9316612474 -2.2109983226 -2.8033348406
O   4.0034917709  1.8332523865  1.0673855717
H   4.2021164704  1.7286686141  1.9625136588
H   4.6903068104  1.4558701506  0.5140244854
O   1.9909541637  3.7785289602  1.7042559198
H   1.9215682393  3.2254756888  0.8760894192
H   2.8116765121  3.6763360677  2.1607704310
O  -3.0953458329 -3.4038636775  0.0023338805
H  -3.4709551543 -3.1726436081  0.8563296634
H  -3.2534057149 -4.3146381306 -0.1937752536
O  -0.5667941961  0.3397056359 -4.5842192160
H  -1.0600440632  0.2955388999 -5.4193466321
H  -0.9806778635  1.0704689970 -4.0446829191
O  -2.5691013293  3.8195920378  0.7417490125
H  -3.3275113145  4.3098271532  0.4684530292
H  -1.9439725531  4.4270704775  1.1559121544
O  -1.6913886467 -2.8534864228  3.3454163189
H  -1.7999269412 -2.6478630132  4.2991127264
H  -2.3705375160 -2.3228508912  2.8608023256
O  -4.2124283496 -1.4665406680 -1.7210364338
H  -5.1288765657 -1.3390742371 -1.4416768779
H  -3.8483674649 -1.9417380705 -0.9712761719
O  -1.7802393345  1.0249957060  4.4414506008
H  -2.0307567980  0.9015184068  3.5124161762
H  -2.5458921334  0.7327465556  4.9953575018
O  -3.9346079704 -1.8349476851  2.5221817883
H  -4.4080131965 -2.2988136560  3.2402177326
H  -4.5019196121 -1.0309814465  2.4738430467
O  -0.4344869915  4.2900821133  2.7419167419
H  -0.5834574068  4.1625424094  3.7279312250
H   0.4238177127  3.9214966263  2.3836498734
O  -0.1959254296  5.2528410373 -1.2711788120
H  -0.2029359813  5.6019929009 -2.1974383619
H  -0.2557144777  4.3280761943 -1.4283850730
