36

C          1.24698       -1.24698       -1.49107
C          1.60758       -1.60758        0.91943
C          1.24698        1.24698        1.49107
C          1.60758        1.60758       -0.91943
C         -1.60758        1.60758        0.91943
C         -1.24698        1.24698       -1.49107
C         -1.24698       -1.24698        1.49107
C         -1.60758       -1.60758       -0.91943
C         -0.78969        0.78969       -0.09340
C         -0.78969       -0.78969        0.09340
C          0.78969       -0.78969       -0.09340
C          0.78969        0.78969        0.09340
H         -1.36727        1.36727        1.95538
H         -1.42693        2.67788        0.76935
H         -2.67788        1.42693        0.76935
H         -0.73174        0.73174       -2.30167
H         -2.32046        1.06761       -1.60859
H         -1.06761        2.32046       -1.60859
H         -0.73174       -0.73174        2.30167
H         -2.32046       -1.06761        1.60859
H         -1.06761       -2.32046        1.60859
H         -1.36727       -1.36727       -1.95538
H         -1.42693       -2.67788       -0.76935
H         -2.67788       -1.42693       -0.76935
H          0.73174       -0.73174       -2.30167
H          2.32046       -1.06761       -1.60859
H          1.06761       -2.32046       -1.60859
H          1.36727       -1.36727        1.95538
H          1.42693       -2.67788        0.76935
H          2.67788       -1.42693        0.76935
H          0.73174        0.73174        2.30167
H          2.32046        1.06761        1.60859
H          1.06761        2.32046        1.60859
H          1.36727        1.36727       -1.95538
H          1.42693        2.67788       -0.76935
H          2.67788        1.42693       -0.76935
